VER
2

OBJSENSE
MAX

VAR
51 2
L+ 15
F 36

INT
9
0
3
6
1
4
7
2
5
8

CON
115 3
L= 5
L- 38
L+ 72

PSDCON
6
3
3
3
3
3
3

PSDCONRANK1
6
0
1
2
3
4
5

OBJACOORD
6
9 1.0
12 1.0
10 1.0
13 1.0
11 1.0
14 1.0

ACOORD
354
0 15 -0.113528445688638
0 16 0.113528445688638
0 17 0.8007322902290648
0 18 -0.8007322902290648
0 19 -0.09186067144188656
0 20 0.09186067144188656
0 21 -1.0167542728137782
0 22 1.0167542728137782
0 23 -1.8824589549352617
0 24 1.8824589549352617
0 25 1.7848298388668364
0 26 -1.7848298388668364
0 27 -0.113528445688638
0 28 0.113528445688638
0 29 0.8007322902290648
0 30 -0.8007322902290648
0 31 -0.09186067144188656
0 32 0.09186067144188656
0 33 -1.0167542728137782
0 34 1.0167542728137782
0 35 -1.8824589549352617
0 36 1.8824589549352617
0 37 1.7848298388668364
0 38 -1.7848298388668364
0 39 -0.113528445688638
0 40 0.113528445688638
0 41 0.8007322902290648
0 42 -0.8007322902290648
0 43 -0.09186067144188656
0 44 0.09186067144188656
0 45 -1.0167542728137782
0 46 1.0167542728137782
0 47 -1.8824589549352617
0 48 1.8824589549352617
0 49 1.7848298388668364
0 50 -1.7848298388668364
1 15 -0.2001889862162841
1 16 0.2001889862162841
1 17 2.799691954972714
1 18 -2.799691954972714
1 19 0.9270719731616963
1 20 -0.9270719731616963
1 21 0.02191719666118508
1 22 -0.02191719666118508
1 23 -0.3353174431077103
1 24 0.3353174431077103
1 25 0.2881855781305219
1 26 -0.2881855781305219
1 27 -0.2001889862162841
1 28 0.2001889862162841
1 29 2.799691954972714
1 30 -2.799691954972714
1 31 0.9270719731616963
1 32 -0.9270719731616963
1 33 0.02191719666118508
1 34 -0.02191719666118508
1 35 -0.3353174431077103
1 36 0.3353174431077103
1 37 0.2881855781305219
1 38 -0.2881855781305219
1 39 -0.2001889862162841
1 40 0.2001889862162841
1 41 2.799691954972714
1 42 -2.799691954972714
1 43 0.9270719731616963
1 44 -0.9270719731616963
1 45 0.02191719666118508
1 46 -0.02191719666118508
1 47 -0.3353174431077103
1 48 0.3353174431077103
1 49 0.2881855781305219
1 50 -0.2881855781305219
2 15 2.265195433572334
2 16 -2.265195433572334
2 17 0.39619298156786065
2 18 -0.39619298156786065
2 19 -0.9118188768095334
2 20 0.9118188768095334
2 21 -0.47381819371287603
2 22 0.47381819371287603
2 23 0.3576134075198458
2 24 -0.3576134075198458
2 25 0.29963854270211004
2 26 -0.29963854270211004
2 27 2.265195433572334
2 28 -2.265195433572334
2 29 0.39619298156786065
2 30 -0.39619298156786065
2 31 -0.9118188768095334
2 32 0.9118188768095334
2 33 -0.47381819371287603
2 34 0.47381819371287603
2 35 0.3576134075198458
2 36 -0.3576134075198458
2 37 0.29963854270211004
2 38 -0.29963854270211004
2 39 2.265195433572334
2 40 -2.265195433572334
2 41 0.39619298156786065
2 42 -0.39619298156786065
2 43 -0.9118188768095334
2 44 0.9118188768095334
2 45 -0.47381819371287603
2 46 0.47381819371287603
2 47 0.3576134075198458
2 48 -0.3576134075198458
2 49 0.29963854270211004
2 50 -0.29963854270211004
3 15 -0.19721845554178322
3 16 0.19721845554178322
3 17 -2.9454043787752684
3 18 2.9454043787752684
3 19 0.39327517604536055
3 20 -0.39327517604536055
3 21 -1.4007037804509386
3 22 1.4007037804509386
3 23 -0.5317212093855235
3 24 0.5317212093855235
3 25 0.6210113076638747
3 26 -0.6210113076638747
3 27 -0.19721845554178322
3 28 0.19721845554178322
3 29 -2.9454043787752684
3 30 2.9454043787752684
3 31 0.39327517604536055
3 32 -0.39327517604536055
3 33 -1.4007037804509386
3 34 1.4007037804509386
3 35 -0.5317212093855235
3 36 0.5317212093855235
3 37 0.6210113076638747
3 38 -0.6210113076638747
3 39 -0.19721845554178322
3 40 0.19721845554178322
3 41 -2.9454043787752684
3 42 2.9454043787752684
3 43 0.39327517604536055
3 44 -0.39327517604536055
3 45 -1.4007037804509386
3 46 1.4007037804509386
3 47 -0.5317212093855235
3 48 0.5317212093855235
3 49 0.6210113076638747
3 50 -0.6210113076638747
4 15 -1.5075225851237388
4 16 1.5075225851237388
4 17 -2.333684498892623
4 18 2.333684498892623
4 19 1.244903010316905
4 20 -1.244903010316905
4 21 0.17462372710779217
4 22 -0.17462372710779217
4 23 -1.0505692065098289
4 24 1.0505692065098289
4 25 0.5493491479917918
4 26 -0.5493491479917918
4 27 -1.5075225851237388
4 28 1.5075225851237388
4 29 -2.333684498892623
4 30 2.333684498892623
4 31 1.244903010316905
4 32 -1.244903010316905
4 33 0.17462372710779217
4 34 -0.17462372710779217
4 35 -1.0505692065098289
4 36 1.0505692065098289
4 37 0.5493491479917918
4 38 -0.5493491479917918
4 39 -1.5075225851237388
4 40 1.5075225851237388
4 41 -2.333684498892623
4 42 2.333684498892623
4 43 1.244903010316905
4 44 -1.244903010316905
4 45 0.17462372710779217
4 46 -0.17462372710779217
4 47 -1.0505692065098289
4 48 1.0505692065098289
4 49 0.5493491479917918
4 50 -0.5493491479917918
5 15 1.0
5 16 1.0
5 19 1.0
5 20 1.0
5 25 1.0
5 26 1.0
5 27 1.0
5 28 1.0
5 31 1.0
5 32 1.0
5 37 1.0
5 38 1.0
5 39 1.0
5 40 1.0
5 43 1.0
5 44 1.0
5 49 1.0
5 50 1.0
6 0 1.0
6 1 1.0
6 2 1.0
7 9 1.0
7 0 -1.0
8 10 1.0
8 1 -1.0
9 11 1.0
9 2 -1.0
10 12 1.0
10 0 -1.0
11 13 1.0
11 1 -1.0
12 14 1.0
12 2 -1.0
13 9 1.0
13 15 -1.0
13 19 -1.0
13 25 -1.0
14 10 1.0
14 27 -1.0
14 31 -1.0
14 37 -1.0
15 11 1.0
15 39 -1.0
15 43 -1.0
15 49 -1.0
16 12 1.0
16 16 -1.0
16 20 -1.0
16 26 -1.0
17 13 1.0
17 28 -1.0
17 32 -1.0
17 38 -1.0
18 14 1.0
18 40 -1.0
18 44 -1.0
18 50 -1.0
19 3 1.0
19 6 1.0
20 4 1.0
20 7 1.0
21 5 1.0
21 8 1.0
28 0 1.0
29 1 1.0
30 2 1.0
31 3 1.0
32 4 1.0
33 5 1.0
34 6 1.0
35 7 1.0
36 8 1.0
37 9 1.0
38 10 1.0
39 11 1.0
40 12 1.0
41 13 1.0
42 14 1.0
22 15 1.0
22 19 1.0
22 25 1.0
22 3 -1.0
23 27 1.0
23 31 1.0
23 37 1.0
23 4 -1.0
24 39 1.0
24 43 1.0
24 49 1.0
24 5 -1.0
25 16 1.0
25 20 1.0
25 26 1.0
25 6 -1.0
26 28 1.0
26 32 1.0
26 38 1.0
26 7 -1.0
27 40 1.0
27 44 1.0
27 50 1.0
27 8 -1.0
43 15 1.0 
44 15 -1.0
45 16 1.0 
46 16 -1.0
47 17 1.0 
48 17 -1.0
49 18 1.0 
50 18 -1.0
51 19 1.0 
52 19 -1.0
53 20 1.0 
54 20 -1.0
55 21 1.0 
56 21 -1.0
57 22 1.0 
58 22 -1.0
59 23 1.0 
60 23 -1.0
61 24 1.0 
62 24 -1.0
63 25 1.0 
64 25 -1.0
65 26 1.0 
66 26 -1.0
67 27 1.0 
68 27 -1.0
69 28 1.0 
70 28 -1.0
71 29 1.0 
72 29 -1.0
73 30 1.0 
74 30 -1.0
75 31 1.0 
76 31 -1.0
77 32 1.0 
78 32 -1.0
79 33 1.0 
80 33 -1.0
81 34 1.0 
82 34 -1.0
83 35 1.0 
84 35 -1.0
85 36 1.0 
86 36 -1.0
87 37 1.0 
88 37 -1.0
89 38 1.0 
90 38 -1.0
91 39 1.0 
92 39 -1.0
93 40 1.0 
94 40 -1.0
95 41 1.0 
96 41 -1.0
97 42 1.0 
98 42 -1.0
99 43  1.0 
100 43 -1.0
101 44 1.0 
102 44 -1.0
103 45 1.0 
104 45 -1.0
105 46 1.0 
106 46 -1.0
107 47 1.0 
108 47 -1.0
109 48 1.0 
110 48 -1.0
111 49 1.0 
112 49 -1.0
113 50 1.0 
114 50 -1.0


BCOORD
92
5 -1.0
6 -1.0
19 -1.0
20 -1.0
21 -1.0
28 -1.0
29 -1.0
30 -1.0
31 -1.0
32 -1.0
33 -1.0
34 -1.0
35 -1.0
36 -1.0
37 -1.0
38 -1.0
39 -1.0
40 -1.0
41 -1.0
42 -1.0
43 10.0
44 10.0
45 10.0
46 10.0
47 10.0
48 10.0
49 10.0
50 10.0
51 10.0
52 10.0
53 10.0
54 10.0
55 10.0
56 10.0
57 10.0
58 10.0
59 10.0
60 10.0
61 10.0
62 10.0
63 10.0
64 10.0
65 10.0
66 10.0
67 10.0
68 10.0
69 10.0
70 10.0
71 10.0
72 10.0
73 10.0
74 10.0
75 10.0
76 10.0
77 10.0
78 10.0
79 10.0
80 10.0
81 10.0
82 10.0
83 10.0
84 10.0
85 10.0
86 10.0
87 10.0
88 10.0
89 10.0
90 10.0
91 10.0
92 10.0
93 10.0
94 10.0
95 10.0
96 10.0
97 10.0
98 10.0
99 10.0
100 10.0
101 10.0
102 10.0
103 10.0
104 10.0
105 10.0
106 10.0
107 10.0
108 10.0
109 10.0
110 10.0
111 10.0
112 10.0
113 10.0
114 10.0


HCOORD
36
0 15 0 0 1.0
0 17 1 0 1.0
0 19 1 1 1.0
0 21 2 0 1.0
0 23 2 1 1.0
0 25 2 2 1.0
2 27 0 0 1.0
2 29 1 0 1.0
2 31 1 1 1.0
2 33 2 0 1.0
2 35 2 1 1.0
2 37 2 2 1.0
4 39 0 0 1.0
4 41 1 0 1.0
4 43 1 1 1.0
4 45 2 0 1.0
4 47 2 1 1.0
4 49 2 2 1.0
1 16 0 0 1.0
1 18 1 0 1.0
1 20 1 1 1.0
1 22 2 0 1.0
1 24 2 1 1.0
1 26 2 2 1.0
3 28 0 0 1.0
3 30 1 0 1.0
3 32 1 1 1.0
3 34 2 0 1.0
3 36 2 1 1.0
3 38 2 2 1.0
5 40 0 0 1.0
5 42 1 0 1.0
5 44 1 1 1.0
5 46 2 0 1.0
5 48 2 1 1.0
5 50 2 2 1.0

